349 354 355 
370 375 376 
388 394 395 
409 415 416 
430 436 437 
444 450 451 
459 465 466 
473 479 480 
491 497 498 
509 515 516 
523 529 530 
538 544 545 
553 559 560 
573 579 580 
593 599 600 
613 619 620 
633 639 640 
653 659 660 
673 679 680 
693 699 700 
713 719 720 
733 739 740 
753 759 760 
773 779 780 
793 799 800 
813 819 820 
833 839 840 
853 859 860 
873 879 880 
893 899 900 
913 919 920 
933 939 940 
953 959 960 
973 979 980 
993 999 1000 
1010 1016 1017 
1027 1033 1034 
1042 1048 1049 
1056 1062 1063 
1072 1078 1079 
1087 1093 1094 
1103 1109 1110 
1118 1124 1125 
1132 1138 1139 
1151 1156 1157 
1179 1184 1185 
1209 1214 1215 
1239 1244 1245 
1269 1274 1275 
1299 1304 1305 
1329 1334 1335 
1359 1364 1365 
1389 1394 1395 
1421 1426 1427 
1451 1456 1457 
1481 1486 1487 
